c THIS FORMULA IS GENERATED BY CNF
c 
c atomics
c X_PI <= 70.62_1_n:1
c X_PI <= 80.61_1_p:2
c C_1_2:3
c X_PI <= 63.52_2_s:4
c X_PT <= 8.31_2_n:5
c C_1_3:6
c X_PT <= 8.31_1_p:7
c C_1_5:8
c X_PT <= 28.68_1_n:9
c X_PT <= 21.06_1_s:10
c X_PI <= 42.09_2_p:11
c X_PI <= 63.52_2_p:12
c X_PT <= 21.06_1_n:13
c X_LA <= 46.33_2_p:14
c C_2_4:15
c X_PT <= 28.68_1_s:16
c X_PT <= 12.36_2_n:17
c X_PI <= 70.62_1_s:18
c X_PI <= 42.09_2_n:19
c X_PT <= 21.06_1_p:20
c X_PT <= 12.36_2_s:21
c X_LA <= 46.33_1_n:22
c X_PT <= 8.31_2_s:23
c X_PI <= 70.62_1_p:24
c X_PI <= 63.52_1_p:25
c X_PT <= 8.31_1_n:26
c C_2_3:27
c X_PT <= 28.68_2_n:28
c X_PI <= 42.09_2_s:29
c C_1_8:30
c X_PI <= 42.09_1_s:31
c X_LA <= 39.63_2_n:32
c X_LA <= 39.63_2_s:33
c X_PT <= 21.06_2_s:34
c X_PT <= 14.55_2_p:35
c X_LA <= 39.63_1_s:36
c X_PT <= 14.55_2_n:37
c X_PI <= 80.61_2_n:38
c C_2_5:39
c X_LA <= 46.33_2_s:40
c C_2_7:41
c X_LA <= 32.59_1_n:42
c X_PT <= 14.55_1_p:43
c X_PT <= 21.06_2_n:44
c X_LA <= 32.59_2_p:45
c X_PT <= 17.44_1_p:46
c X_PT <= 12.36_2_p:47
c X_LA <= 39.63_1_n:48
c C_2_2:49
c X_LA <= 32.59_2_s:50
c X_LA <= 39.63_2_p:51
c X_PT <= 28.68_1_p:52
c X_LA <= 46.33_2_n:53
c X_PT <= 17.44_2_s:54
c C_2_1:55
c X_LA <= 32.59_2_n:56
c X_PT <= 28.68_2_s:57
c X_PI <= 63.52_1_s:58
c C_1_9:59
c C_1_1:60
c X_PI <= 48.12_1_n:61
c X_PI <= 42.09_1_p:62
c X_PI <= 42.09_1_n:63
c C_2_6:64
c X_PI <= 70.62_2_s:65
c X_LA <= 46.33_1_s:66
c X_PI <= 54.92_2_n:67
c X_PI <= 48.12_2_n:68
c X_PI <= 54.92_2_s:69
c X_PI <= 54.92_1_s:70
c X_PI <= 48.12_2_p:71
c X_PI <= 70.62_2_n:72
c X_PI <= 48.12_1_p:73
c X_PT <= 17.44_1_s:74
c X_PT <= 14.55_2_s:75
c X_PI <= 80.61_2_s:76
c X_LA <= 39.63_1_p:77
c X_PI <= 48.12_1_s:78
c X_PI <= 54.92_1_p:79
c X_PT <= 8.31_2_p:80
c X_PT <= 28.68_2_p:81
c X_PI <= 54.92_2_p:82
c X_PI <= 70.62_2_p:83
c X_PI <= 80.61_1_s:84
c X_PI <= 80.61_1_n:85
c X_PI <= 63.52_2_n:86
c X_PI <= 80.61_2_p:87
c X_PT <= 14.55_1_s:88
c X_PT <= 12.36_1_p:89
c X_PT <= 17.44_2_p:90
c X_PI <= 54.92_1_n:91
c X_PT <= 12.36_1_n:92
c X_PT <= 17.44_2_n:93
c X_PT <= 12.36_1_s:94
c X_LA <= 46.33_1_p:95
c X_PT <= 17.44_1_n:96
c X_PT <= 14.55_1_n:97
c X_PI <= 48.12_2_s:98
c C_2_9:99
c C_1_6:100
c C_1_7:101
c C_1_4:102
c X_LA <= 32.59_1_s:103
c X_PT <= 21.06_2_p:104
c X_PT <= 8.31_1_s:105
c X_PI <= 63.52_1_n:106
c X_LA <= 32.59_1_p:107
c C_2_8:108
c end atomics
p cnf 108 1110
62 -62 -62 0
62 -62 -63 0
62 -62 31 0
62 63 -62 0
62 63 -63 0
62 63 31 0
62 -31 -62 0
62 -31 -63 0
62 -31 31 0
-63 -62 -62 0
-63 -62 -63 0
-63 -62 31 0
-63 63 -62 0
-63 63 -63 0
-63 63 31 0
-63 -31 -62 0
-63 -31 -63 0
-63 -31 31 0
-31 -62 -62 0
-31 -62 -63 0
-31 -62 31 0
-31 63 -62 0
-31 63 -63 0
-31 63 31 0
-31 -31 -62 0
-31 -31 -63 0
-31 -31 31 0
73 -73 -73 0
73 -73 -61 0
73 -73 78 0
73 61 -73 0
73 61 -61 0
73 61 78 0
73 -78 -73 0
73 -78 -61 0
73 -78 78 0
-61 -73 -73 0
-61 -73 -61 0
-61 -73 78 0
-61 61 -73 0
-61 61 -61 0
-61 61 78 0
-61 -78 -73 0
-61 -78 -61 0
-61 -78 78 0
-78 -73 -73 0
-78 -73 -61 0
-78 -73 78 0
-78 61 -73 0
-78 61 -61 0
-78 61 78 0
-78 -78 -73 0
-78 -78 -61 0
-78 -78 78 0
79 -79 -79 0
79 -79 -91 0
79 -79 70 0
79 91 -79 0
79 91 -91 0
79 91 70 0
79 -70 -79 0
79 -70 -91 0
79 -70 70 0
-91 -79 -79 0
-91 -79 -91 0
-91 -79 70 0
-91 91 -79 0
-91 91 -91 0
-91 91 70 0
-91 -70 -79 0
-91 -70 -91 0
-91 -70 70 0
-70 -79 -79 0
-70 -79 -91 0
-70 -79 70 0
-70 91 -79 0
-70 91 -91 0
-70 91 70 0
-70 -70 -79 0
-70 -70 -91 0
-70 -70 70 0
25 -25 -25 0
25 -25 -106 0
25 -25 58 0
25 106 -25 0
25 106 -106 0
25 106 58 0
25 -58 -25 0
25 -58 -106 0
25 -58 58 0
-106 -25 -25 0
-106 -25 -106 0
-106 -25 58 0
-106 106 -25 0
-106 106 -106 0
-106 106 58 0
-106 -58 -25 0
-106 -58 -106 0
-106 -58 58 0
-58 -25 -25 0
-58 -25 -106 0
-58 -25 58 0
-58 106 -25 0
-58 106 -106 0
-58 106 58 0
-58 -58 -25 0
-58 -58 -106 0
-58 -58 58 0
24 -24 -24 0
24 -24 -1 0
24 -24 18 0
24 1 -24 0
24 1 -1 0
24 1 18 0
24 -18 -24 0
24 -18 -1 0
24 -18 18 0
-1 -24 -24 0
-1 -24 -1 0
-1 -24 18 0
-1 1 -24 0
-1 1 -1 0
-1 1 18 0
-1 -18 -24 0
-1 -18 -1 0
-1 -18 18 0
-18 -24 -24 0
-18 -24 -1 0
-18 -24 18 0
-18 1 -24 0
-18 1 -1 0
-18 1 18 0
-18 -18 -24 0
-18 -18 -1 0
-18 -18 18 0
2 -2 -2 0
2 -2 -85 0
2 -2 84 0
2 85 -2 0
2 85 -85 0
2 85 84 0
2 -84 -2 0
2 -84 -85 0
2 -84 84 0
-85 -2 -2 0
-85 -2 -85 0
-85 -2 84 0
-85 85 -2 0
-85 85 -85 0
-85 85 84 0
-85 -84 -2 0
-85 -84 -85 0
-85 -84 84 0
-84 -2 -2 0
-84 -2 -85 0
-84 -2 84 0
-84 85 -2 0
-84 85 -85 0
-84 85 84 0
-84 -84 -2 0
-84 -84 -85 0
-84 -84 84 0
7 -7 -7 0
7 -7 -26 0
7 -7 105 0
7 26 -7 0
7 26 -26 0
7 26 105 0
7 -105 -7 0
7 -105 -26 0
7 -105 105 0
-26 -7 -7 0
-26 -7 -26 0
-26 -7 105 0
-26 26 -7 0
-26 26 -26 0
-26 26 105 0
-26 -105 -7 0
-26 -105 -26 0
-26 -105 105 0
-105 -7 -7 0
-105 -7 -26 0
-105 -7 105 0
-105 26 -7 0
-105 26 -26 0
-105 26 105 0
-105 -105 -7 0
-105 -105 -26 0
-105 -105 105 0
89 -89 -89 0
89 -89 -92 0
89 -89 94 0
89 92 -89 0
89 92 -92 0
89 92 94 0
89 -94 -89 0
89 -94 -92 0
89 -94 94 0
-92 -89 -89 0
-92 -89 -92 0
-92 -89 94 0
-92 92 -89 0
-92 92 -92 0
-92 92 94 0
-92 -94 -89 0
-92 -94 -92 0
-92 -94 94 0
-94 -89 -89 0
-94 -89 -92 0
-94 -89 94 0
-94 92 -89 0
-94 92 -92 0
-94 92 94 0
-94 -94 -89 0
-94 -94 -92 0
-94 -94 94 0
43 -43 -43 0
43 -43 -97 0
43 -43 88 0
43 97 -43 0
43 97 -97 0
43 97 88 0
43 -88 -43 0
43 -88 -97 0
43 -88 88 0
-97 -43 -43 0
-97 -43 -97 0
-97 -43 88 0
-97 97 -43 0
-97 97 -97 0
-97 97 88 0
-97 -88 -43 0
-97 -88 -97 0
-97 -88 88 0
-88 -43 -43 0
-88 -43 -97 0
-88 -43 88 0
-88 97 -43 0
-88 97 -97 0
-88 97 88 0
-88 -88 -43 0
-88 -88 -97 0
-88 -88 88 0
46 -46 -46 0
46 -46 -96 0
46 -46 74 0
46 96 -46 0
46 96 -96 0
46 96 74 0
46 -74 -46 0
46 -74 -96 0
46 -74 74 0
-96 -46 -46 0
-96 -46 -96 0
-96 -46 74 0
-96 96 -46 0
-96 96 -96 0
-96 96 74 0
-96 -74 -46 0
-96 -74 -96 0
-96 -74 74 0
-74 -46 -46 0
-74 -46 -96 0
-74 -46 74 0
-74 96 -46 0
-74 96 -96 0
-74 96 74 0
-74 -74 -46 0
-74 -74 -96 0
-74 -74 74 0
20 -20 -20 0
20 -20 -13 0
20 -20 10 0
20 13 -20 0
20 13 -13 0
20 13 10 0
20 -10 -20 0
20 -10 -13 0
20 -10 10 0
-13 -20 -20 0
-13 -20 -13 0
-13 -20 10 0
-13 13 -20 0
-13 13 -13 0
-13 13 10 0
-13 -10 -20 0
-13 -10 -13 0
-13 -10 10 0
-10 -20 -20 0
-10 -20 -13 0
-10 -20 10 0
-10 13 -20 0
-10 13 -13 0
-10 13 10 0
-10 -10 -20 0
-10 -10 -13 0
-10 -10 10 0
52 -52 -52 0
52 -52 -9 0
52 -52 16 0
52 9 -52 0
52 9 -9 0
52 9 16 0
52 -16 -52 0
52 -16 -9 0
52 -16 16 0
-9 -52 -52 0
-9 -52 -9 0
-9 -52 16 0
-9 9 -52 0
-9 9 -9 0
-9 9 16 0
-9 -16 -52 0
-9 -16 -9 0
-9 -16 16 0
-16 -52 -52 0
-16 -52 -9 0
-16 -52 16 0
-16 9 -52 0
-16 9 -9 0
-16 9 16 0
-16 -16 -52 0
-16 -16 -9 0
-16 -16 16 0
107 -107 -107 0
107 -107 -42 0
107 -107 103 0
107 42 -107 0
107 42 -42 0
107 42 103 0
107 -103 -107 0
107 -103 -42 0
107 -103 103 0
-42 -107 -107 0
-42 -107 -42 0
-42 -107 103 0
-42 42 -107 0
-42 42 -42 0
-42 42 103 0
-42 -103 -107 0
-42 -103 -42 0
-42 -103 103 0
-103 -107 -107 0
-103 -107 -42 0
-103 -107 103 0
-103 42 -107 0
-103 42 -42 0
-103 42 103 0
-103 -103 -107 0
-103 -103 -42 0
-103 -103 103 0
77 -77 -77 0
77 -77 -48 0
77 -77 36 0
77 48 -77 0
77 48 -48 0
77 48 36 0
77 -36 -77 0
77 -36 -48 0
77 -36 36 0
-48 -77 -77 0
-48 -77 -48 0
-48 -77 36 0
-48 48 -77 0
-48 48 -48 0
-48 48 36 0
-48 -36 -77 0
-48 -36 -48 0
-48 -36 36 0
-36 -77 -77 0
-36 -77 -48 0
-36 -77 36 0
-36 48 -77 0
-36 48 -48 0
-36 48 36 0
-36 -36 -77 0
-36 -36 -48 0
-36 -36 36 0
95 -95 -95 0
95 -95 -22 0
95 -95 66 0
95 22 -95 0
95 22 -22 0
95 22 66 0
95 -66 -95 0
95 -66 -22 0
95 -66 66 0
-22 -95 -95 0
-22 -95 -22 0
-22 -95 66 0
-22 22 -95 0
-22 22 -22 0
-22 22 66 0
-22 -66 -95 0
-22 -66 -22 0
-22 -66 66 0
-66 -95 -95 0
-66 -95 -22 0
-66 -95 66 0
-66 22 -95 0
-66 22 -22 0
-66 22 66 0
-66 -66 -95 0
-66 -66 -22 0
-66 -66 66 0
11 -11 -11 0
11 -11 -19 0
11 -11 29 0
11 19 -11 0
11 19 -19 0
11 19 29 0
11 -29 -11 0
11 -29 -19 0
11 -29 29 0
-19 -11 -11 0
-19 -11 -19 0
-19 -11 29 0
-19 19 -11 0
-19 19 -19 0
-19 19 29 0
-19 -29 -11 0
-19 -29 -19 0
-19 -29 29 0
-29 -11 -11 0
-29 -11 -19 0
-29 -11 29 0
-29 19 -11 0
-29 19 -19 0
-29 19 29 0
-29 -29 -11 0
-29 -29 -19 0
-29 -29 29 0
71 -71 -71 0
71 -71 -68 0
71 -71 98 0
71 68 -71 0
71 68 -68 0
71 68 98 0
71 -98 -71 0
71 -98 -68 0
71 -98 98 0
-68 -71 -71 0
-68 -71 -68 0
-68 -71 98 0
-68 68 -71 0
-68 68 -68 0
-68 68 98 0
-68 -98 -71 0
-68 -98 -68 0
-68 -98 98 0
-98 -71 -71 0
-98 -71 -68 0
-98 -71 98 0
-98 68 -71 0
-98 68 -68 0
-98 68 98 0
-98 -98 -71 0
-98 -98 -68 0
-98 -98 98 0
82 -82 -82 0
82 -82 -67 0
82 -82 69 0
82 67 -82 0
82 67 -67 0
82 67 69 0
82 -69 -82 0
82 -69 -67 0
82 -69 69 0
-67 -82 -82 0
-67 -82 -67 0
-67 -82 69 0
-67 67 -82 0
-67 67 -67 0
-67 67 69 0
-67 -69 -82 0
-67 -69 -67 0
-67 -69 69 0
-69 -82 -82 0
-69 -82 -67 0
-69 -82 69 0
-69 67 -82 0
-69 67 -67 0
-69 67 69 0
-69 -69 -82 0
-69 -69 -67 0
-69 -69 69 0
12 -12 -12 0
12 -12 -86 0
12 -12 4 0
12 86 -12 0
12 86 -86 0
12 86 4 0
12 -4 -12 0
12 -4 -86 0
12 -4 4 0
-86 -12 -12 0
-86 -12 -86 0
-86 -12 4 0
-86 86 -12 0
-86 86 -86 0
-86 86 4 0
-86 -4 -12 0
-86 -4 -86 0
-86 -4 4 0
-4 -12 -12 0
-4 -12 -86 0
-4 -12 4 0
-4 86 -12 0
-4 86 -86 0
-4 86 4 0
-4 -4 -12 0
-4 -4 -86 0
-4 -4 4 0
83 -83 -83 0
83 -83 -72 0
83 -83 65 0
83 72 -83 0
83 72 -72 0
83 72 65 0
83 -65 -83 0
83 -65 -72 0
83 -65 65 0
-72 -83 -83 0
-72 -83 -72 0
-72 -83 65 0
-72 72 -83 0
-72 72 -72 0
-72 72 65 0
-72 -65 -83 0
-72 -65 -72 0
-72 -65 65 0
-65 -83 -83 0
-65 -83 -72 0
-65 -83 65 0
-65 72 -83 0
-65 72 -72 0
-65 72 65 0
-65 -65 -83 0
-65 -65 -72 0
-65 -65 65 0
87 -87 -87 0
87 -87 -38 0
87 -87 76 0
87 38 -87 0
87 38 -38 0
87 38 76 0
87 -76 -87 0
87 -76 -38 0
87 -76 76 0
-38 -87 -87 0
-38 -87 -38 0
-38 -87 76 0
-38 38 -87 0
-38 38 -38 0
-38 38 76 0
-38 -76 -87 0
-38 -76 -38 0
-38 -76 76 0
-76 -87 -87 0
-76 -87 -38 0
-76 -87 76 0
-76 38 -87 0
-76 38 -38 0
-76 38 76 0
-76 -76 -87 0
-76 -76 -38 0
-76 -76 76 0
80 -80 -80 0
80 -80 -5 0
80 -80 23 0
80 5 -80 0
80 5 -5 0
80 5 23 0
80 -23 -80 0
80 -23 -5 0
80 -23 23 0
-5 -80 -80 0
-5 -80 -5 0
-5 -80 23 0
-5 5 -80 0
-5 5 -5 0
-5 5 23 0
-5 -23 -80 0
-5 -23 -5 0
-5 -23 23 0
-23 -80 -80 0
-23 -80 -5 0
-23 -80 23 0
-23 5 -80 0
-23 5 -5 0
-23 5 23 0
-23 -23 -80 0
-23 -23 -5 0
-23 -23 23 0
47 -47 -47 0
47 -47 -17 0
47 -47 21 0
47 17 -47 0
47 17 -17 0
47 17 21 0
47 -21 -47 0
47 -21 -17 0
47 -21 21 0
-17 -47 -47 0
-17 -47 -17 0
-17 -47 21 0
-17 17 -47 0
-17 17 -17 0
-17 17 21 0
-17 -21 -47 0
-17 -21 -17 0
-17 -21 21 0
-21 -47 -47 0
-21 -47 -17 0
-21 -47 21 0
-21 17 -47 0
-21 17 -17 0
-21 17 21 0
-21 -21 -47 0
-21 -21 -17 0
-21 -21 21 0
35 -35 -35 0
35 -35 -37 0
35 -35 75 0
35 37 -35 0
35 37 -37 0
35 37 75 0
35 -75 -35 0
35 -75 -37 0
35 -75 75 0
-37 -35 -35 0
-37 -35 -37 0
-37 -35 75 0
-37 37 -35 0
-37 37 -37 0
-37 37 75 0
-37 -75 -35 0
-37 -75 -37 0
-37 -75 75 0
-75 -35 -35 0
-75 -35 -37 0
-75 -35 75 0
-75 37 -35 0
-75 37 -37 0
-75 37 75 0
-75 -75 -35 0
-75 -75 -37 0
-75 -75 75 0
90 -90 -90 0
90 -90 -93 0
90 -90 54 0
90 93 -90 0
90 93 -93 0
90 93 54 0
90 -54 -90 0
90 -54 -93 0
90 -54 54 0
-93 -90 -90 0
-93 -90 -93 0
-93 -90 54 0
-93 93 -90 0
-93 93 -93 0
-93 93 54 0
-93 -54 -90 0
-93 -54 -93 0
-93 -54 54 0
-54 -90 -90 0
-54 -90 -93 0
-54 -90 54 0
-54 93 -90 0
-54 93 -93 0
-54 93 54 0
-54 -54 -90 0
-54 -54 -93 0
-54 -54 54 0
104 -104 -104 0
104 -104 -44 0
104 -104 34 0
104 44 -104 0
104 44 -44 0
104 44 34 0
104 -34 -104 0
104 -34 -44 0
104 -34 34 0
-44 -104 -104 0
-44 -104 -44 0
-44 -104 34 0
-44 44 -104 0
-44 44 -44 0
-44 44 34 0
-44 -34 -104 0
-44 -34 -44 0
-44 -34 34 0
-34 -104 -104 0
-34 -104 -44 0
-34 -104 34 0
-34 44 -104 0
-34 44 -44 0
-34 44 34 0
-34 -34 -104 0
-34 -34 -44 0
-34 -34 34 0
81 -81 -81 0
81 -81 -28 0
81 -81 57 0
81 28 -81 0
81 28 -28 0
81 28 57 0
81 -57 -81 0
81 -57 -28 0
81 -57 57 0
-28 -81 -81 0
-28 -81 -28 0
-28 -81 57 0
-28 28 -81 0
-28 28 -28 0
-28 28 57 0
-28 -57 -81 0
-28 -57 -28 0
-28 -57 57 0
-57 -81 -81 0
-57 -81 -28 0
-57 -81 57 0
-57 28 -81 0
-57 28 -28 0
-57 28 57 0
-57 -57 -81 0
-57 -57 -28 0
-57 -57 57 0
45 -45 -45 0
45 -45 -56 0
45 -45 50 0
45 56 -45 0
45 56 -56 0
45 56 50 0
45 -50 -45 0
45 -50 -56 0
45 -50 50 0
-56 -45 -45 0
-56 -45 -56 0
-56 -45 50 0
-56 56 -45 0
-56 56 -56 0
-56 56 50 0
-56 -50 -45 0
-56 -50 -56 0
-56 -50 50 0
-50 -45 -45 0
-50 -45 -56 0
-50 -45 50 0
-50 56 -45 0
-50 56 -56 0
-50 56 50 0
-50 -50 -45 0
-50 -50 -56 0
-50 -50 50 0
51 -51 -51 0
51 -51 -32 0
51 -51 33 0
51 32 -51 0
51 32 -32 0
51 32 33 0
51 -33 -51 0
51 -33 -32 0
51 -33 33 0
-32 -51 -51 0
-32 -51 -32 0
-32 -51 33 0
-32 32 -51 0
-32 32 -32 0
-32 32 33 0
-32 -33 -51 0
-32 -33 -32 0
-32 -33 33 0
-33 -51 -51 0
-33 -51 -32 0
-33 -51 33 0
-33 32 -51 0
-33 32 -32 0
-33 32 33 0
-33 -33 -51 0
-33 -33 -32 0
-33 -33 33 0
14 -14 -14 0
14 -14 -53 0
14 -14 40 0
14 53 -14 0
14 53 -53 0
14 53 40 0
14 -40 -14 0
14 -40 -53 0
14 -40 40 0
-53 -14 -14 0
-53 -14 -53 0
-53 -14 40 0
-53 53 -14 0
-53 53 -53 0
-53 53 40 0
-53 -40 -14 0
-53 -40 -53 0
-53 -40 40 0
-40 -14 -14 0
-40 -14 -53 0
-40 -14 40 0
-40 53 -14 0
-40 53 -53 0
-40 53 40 0
-40 -40 -14 0
-40 -40 -53 0
-40 -40 40 0
-31 -78 -70 -58 -18 -84 -105 -94 -88 -74 -10 -16 -103 -36 -66 0
-29 -98 -69 -4 -65 -76 -23 -21 -75 -54 -34 -57 -50 -33 -40 0
62 73 91 106 1 85 7 92 97 96 13 9 107 77 22 0
11 71 67 86 72 38 80 17 37 93 44 28 45 51 53 0
62 73 79 25 24 85 7 89 43 96 13 9 107 77 95 0
11 71 82 12 83 38 80 47 35 93 44 28 45 51 14 0
62 61 91 106 1 85 7 89 97 96 13 9 42 48 22 0
11 68 67 86 72 38 80 47 37 93 44 28 56 32 53 0
63 61 91 106 1 85 26 92 97 96 13 9 42 48 22 0
19 68 67 86 72 38 5 17 37 93 44 28 56 32 53 0
62 73 91 106 1 85 26 92 97 96 13 9 107 77 95 0
11 71 67 86 72 38 5 17 37 93 44 28 45 51 14 0
62 73 91 106 1 85 7 92 97 96 13 9 107 77 22 0
11 71 67 86 72 38 80 17 37 93 44 28 45 51 53 0
62 61 91 106 1 85 7 92 97 96 13 9 107 77 22 0
11 68 67 86 72 38 80 17 37 93 44 28 45 51 53 0
62 73 91 106 1 85 7 92 97 96 13 9 107 77 95 0
11 71 67 86 72 38 80 17 37 93 44 28 45 51 14 0
62 73 79 106 1 85 7 89 43 96 13 9 107 77 22 0
11 71 82 86 72 38 80 47 35 93 44 28 45 51 53 0
63 61 91 106 1 85 7 89 43 96 13 9 42 48 22 0
19 68 67 86 72 38 80 47 35 93 44 28 56 32 53 0
-62 -60 0
-73 -60 0
-79 -60 0
-106 -60 0
-1 -60 0
-85 -60 0
-7 -60 0
-89 -60 0
-43 -60 0
-46 -60 0
-20 -60 0
-52 -60 0
-107 -60 0
-77 -60 0
-95 -60 0
-11 -55 0
-71 -55 0
-82 -55 0
-86 -55 0
-72 -55 0
-38 -55 0
-80 -55 0
-47 -55 0
-35 -55 0
-90 -55 0
-104 -55 0
-81 -55 0
-45 -55 0
-51 -55 0
-14 -55 0
-62 -3 0
-73 -3 0
-79 -3 0
-25 -3 0
-24 -3 0
-2 -3 0
-7 -3 0
-89 -3 0
-43 -3 0
-46 -3 0
-13 -3 0
-9 -3 0
-107 -3 0
-77 -3 0
-95 -3 0
-11 -49 0
-71 -49 0
-82 -49 0
-12 -49 0
-83 -49 0
-87 -49 0
-80 -49 0
-47 -49 0
-35 -49 0
-90 -49 0
-44 -49 0
-28 -49 0
-45 -49 0
-51 -49 0
-14 -49 0
-62 -6 0
-73 -6 0
-79 -6 0
-25 -6 0
-24 -6 0
-85 -6 0
-7 -6 0
-89 -6 0
-43 -6 0
-46 -6 0
-13 -6 0
-9 -6 0
-107 -6 0
-77 -6 0
-95 -6 0
-11 -27 0
-71 -27 0
-82 -27 0
-12 -27 0
-83 -27 0
-38 -27 0
-80 -27 0
-47 -27 0
-35 -27 0
-90 -27 0
-44 -27 0
-28 -27 0
-45 -27 0
-51 -27 0
-14 -27 0
-62 -102 0
-73 -102 0
-79 -102 0
-25 -102 0
-24 -102 0
-85 -102 0
-7 -102 0
-89 -102 0
-43 -102 0
-46 -102 0
-20 -102 0
-9 -102 0
-107 -102 0
-77 -102 0
-95 -102 0
-11 -15 0
-71 -15 0
-82 -15 0
-12 -15 0
-83 -15 0
-38 -15 0
-80 -15 0
-47 -15 0
-35 -15 0
-90 -15 0
-104 -15 0
-28 -15 0
-45 -15 0
-51 -15 0
-14 -15 0
-62 -8 0
-73 -8 0
-79 -8 0
-106 -8 0
-1 -8 0
-85 -8 0
-7 -8 0
-89 -8 0
-97 -8 0
-96 -8 0
-13 -8 0
-9 -8 0
-107 -8 0
-77 -8 0
-22 -8 0
-11 -39 0
-71 -39 0
-82 -39 0
-86 -39 0
-72 -39 0
-38 -39 0
-80 -39 0
-47 -39 0
-37 -39 0
-93 -39 0
-44 -39 0
-28 -39 0
-45 -39 0
-51 -39 0
-53 -39 0
-62 -100 0
-73 -100 0
-79 -100 0
-25 -100 0
-24 -100 0
-2 -100 0
-7 -100 0
-89 -100 0
-43 -100 0
-46 -100 0
-20 -100 0
-52 -100 0
-107 -100 0
-77 -100 0
-95 -100 0
-11 -64 0
-71 -64 0
-82 -64 0
-12 -64 0
-83 -64 0
-87 -64 0
-80 -64 0
-47 -64 0
-35 -64 0
-90 -64 0
-104 -64 0
-81 -64 0
-45 -64 0
-51 -64 0
-14 -64 0
-62 -101 0
-73 -101 0
-79 -101 0
-25 -101 0
-24 -101 0
-85 -101 0
-7 -101 0
-89 -101 0
-43 -101 0
-46 -101 0
-13 -101 0
-9 -101 0
-107 -101 0
-77 -101 0
-95 -101 0
-11 -41 0
-71 -41 0
-82 -41 0
-12 -41 0
-83 -41 0
-38 -41 0
-80 -41 0
-47 -41 0
-35 -41 0
-90 -41 0
-44 -41 0
-28 -41 0
-45 -41 0
-51 -41 0
-14 -41 0
-62 -30 0
-73 -30 0
-79 -30 0
-25 -30 0
-1 -30 0
-85 -30 0
-7 -30 0
-89 -30 0
-97 -30 0
-96 -30 0
-13 -30 0
-9 -30 0
-107 -30 0
-77 -30 0
-95 -30 0
-11 -108 0
-71 -108 0
-82 -108 0
-12 -108 0
-72 -108 0
-38 -108 0
-80 -108 0
-47 -108 0
-37 -108 0
-93 -108 0
-44 -108 0
-28 -108 0
-45 -108 0
-51 -108 0
-14 -108 0
-62 -59 0
-73 -59 0
-79 -59 0
-25 -59 0
-24 -59 0
-85 -59 0
-7 -59 0
-89 -59 0
-43 -59 0
-46 -59 0
-20 -59 0
-52 -59 0
-107 -59 0
-77 -59 0
-95 -59 0
-11 -99 0
-71 -99 0
-82 -99 0
-12 -99 0
-83 -99 0
-38 -99 0
-80 -99 0
-47 -99 0
-35 -99 0
-90 -99 0
-104 -99 0
-81 -99 0
-45 -99 0
-51 -99 0
-14 -99 0
60 55 0
3 49 0
6 27 0
102 15 0
8 39 0
100 64 0
101 41 0
30 108 0
59 99 0
